p cnf 964 2475
51 -697 -1 0
-51 697 0
-51 1 0
52 -51 -3 0
-52 51 0
-52 3 0
53 -698 -3 0
-53 698 0
-53 3 0
54 -53 -5 0
-54 53 0
-54 5 0
55 -699 -700 0
-55 699 0
-55 700 0
56 -701 -2 0
-56 701 0
-56 2 0
57 -56 -702 0
-57 56 0
-57 702 0
58 -703 -55 0
-58 703 0
-58 55 0
59 -704 -8 0
-59 704 0
-59 8 0
60 -59 -10 0
-60 59 0
-60 10 0
61 -705 -58 0
-61 705 0
-61 58 0
62 -706 -707 0
-62 706 0
-62 707 0
63 -62 -13 0
-63 62 0
-63 13 0
64 -708 -61 0
-64 708 0
-64 61 0
65 -14 -2 0
-65 14 0
-65 2 0
66 -65 -709 0
-66 65 0
-66 709 0
67 -710 -64 0
-67 710 0
-67 64 0
68 -17 -711 0
-68 17 0
-68 711 0
69 -68 -12 0
-69 68 0
-69 12 0
70 -712 -67 0
-70 712 0
-70 67 0
71 -8 -2 0
-71 8 0
-71 2 0
72 -71 -18 0
-72 71 0
-72 18 0
73 -713 -70 0
-73 713 0
-73 70 0
74 -20 -19 0
-74 20 0
-74 19 0
75 -74 -714 0
-75 74 0
-75 714 0
76 -715 -73 0
-76 715 0
-76 73 0
77 -22 -716 0
-77 22 0
-77 716 0
78 -77 -717 0
-78 77 0
-78 717 0
79 -718 -76 0
-79 718 0
-79 76 0
80 -719 -698 0
-80 719 0
-80 698 0
81 -80 -720 0
-81 80 0
-81 720 0
82 -721 -79 0
-82 721 0
-82 79 0
83 -25 -697 0
-83 25 0
-83 697 0
84 -83 -722 0
-84 83 0
-84 722 0
85 -723 -82 0
-85 723 0
-85 82 0
86 -724 -25 0
-86 724 0
-86 25 0
87 -86 -24 0
-87 86 0
-87 24 0
88 -725 -85 0
-88 725 0
-88 85 0
89 -726 -727 0
-89 726 0
-89 727 0
90 -89 -21 0
-90 89 0
-90 21 0
91 -728 -88 0
-91 728 0
-91 88 0
92 -29 -11 0
-92 29 0
-92 11 0
93 -92 -10 0
-93 92 0
-93 10 0
94 -729 -91 0
-94 729 0
-94 91 0
95 -14 -3 0
-95 14 0
-95 3 0
96 -95 -730 0
-96 95 0
-96 730 0
97 -731 -94 0
-97 731 0
-97 94 0
98 -30 -5 0
-98 30 0
-98 5 0
99 -98 -732 0
-99 98 0
-99 732 0
100 -733 -97 0
-100 733 0
-100 97 0
101 -734 -719 0
-101 734 0
-101 719 0
102 -101 -33 0
-102 101 0
-102 33 0
103 -735 -100 0
-103 735 0
-103 100 0
104 -34 -5 0
-104 34 0
-104 5 0
105 -104 -709 0
-105 104 0
-105 709 0
106 -736 -103 0
-106 736 0
-106 103 0
107 -737 -12 0
-107 737 0
-107 12 0
108 -107 -36 0
-108 107 0
-108 36 0
109 -738 -106 0
-109 738 0
-109 106 0
110 -38 -37 0
-110 38 0
-110 37 0
111 -110 -739 0
-111 110 0
-111 739 0
112 -740 -109 0
-112 740 0
-112 109 0
113 -39 -18 0
-113 39 0
-113 18 0
114 -113 -15 0
-114 113 0
-114 15 0
115 -741 -112 0
-115 741 0
-115 112 0
116 -40 -20 0
-116 40 0
-116 20 0
117 -116 -41 0
-117 116 0
-117 41 0
118 -742 -115 0
-118 742 0
-118 115 0
119 -18 -704 0
-119 18 0
-119 704 0
120 -119 -38 0
-120 119 0
-120 38 0
121 -743 -118 0
-121 743 0
-121 118 0
122 -40 -15 0
-122 40 0
-122 15 0
123 -122 -730 0
-123 122 0
-123 730 0
124 -744 -121 0
-124 744 0
-124 121 0
125 -714 -2 0
-125 714 0
-125 2 0
126 -125 -5 0
-126 125 0
-126 5 0
127 -745 -124 0
-127 745 0
-127 124 0
128 -746 -704 0
-128 746 0
-128 704 0
129 -128 -737 0
-129 128 0
-129 737 0
130 -747 -127 0
-130 747 0
-130 127 0
131 -17 -748 0
-131 17 0
-131 748 0
132 -131 -702 0
-132 131 0
-132 702 0
133 -749 -130 0
-133 749 0
-133 130 0
134 -716 -1 0
-134 716 0
-134 1 0
135 -134 -42 0
-135 134 0
-135 42 0
136 -750 -133 0
-136 750 0
-136 133 0
137 -751 -25 0
-137 751 0
-137 25 0
138 -137 -752 0
-138 137 0
-138 752 0
139 -753 -136 0
-139 753 0
-139 136 0
140 -754 -755 0
-140 754 0
-140 755 0
141 -140 -756 0
-141 140 0
-141 756 0
142 -757 -139 0
-142 757 0
-142 139 0
143 -717 -748 0
-143 717 0
-143 748 0
144 -143 -706 0
-144 143 0
-144 706 0
145 -758 -142 0
-145 758 0
-145 142 0
146 -5 -759 0
-146 5 0
-146 759 0
147 -146 -702 0
-147 146 0
-147 702 0
148 -760 -145 0
-148 760 0
-148 145 0
149 -761 -762 0
-149 761 0
-149 762 0
150 -149 -31 0
-150 149 0
-150 31 0
151 -763 -148 0
-151 763 0
-151 148 0
152 -764 -759 0
-152 764 0
-152 759 0
153 -152 -13 0
-153 152 0
-153 13 0
154 -765 -151 0
-154 765 0
-154 151 0
155 -42 -21 0
-155 42 0
-155 21 0
156 -155 -41 0
-156 155 0
-156 41 0
157 -766 -154 0
-157 766 0
-157 154 0
158 -38 -767 0
-158 38 0
-158 767 0
159 -158 -709 0
-159 158 0
-159 709 0
160 -768 -157 0
-160 768 0
-160 157 0
161 -24 -18 0
-161 24 0
-161 18 0
162 -161 -769 0
-162 161 0
-162 769 0
163 -770 -160 0
-163 770 0
-163 160 0
164 -771 -34 0
-164 771 0
-164 34 0
165 -164 -772 0
-165 164 0
-165 772 0
166 -773 -163 0
-166 773 0
-166 163 0
167 -68 -24 0
-167 68 0
-167 24 0
168 -774 -166 0
-168 774 0
-168 166 0
169 -21 -3 0
-169 21 0
-169 3 0
170 -169 -724 0
-170 169 0
-170 724 0
171 -775 -168 0
-171 775 0
-171 168 0
172 -776 -719 0
-172 776 0
-172 719 0
173 -172 -9 0
-173 172 0
-173 9 0
174 -777 -171 0
-174 777 0
-174 171 0
175 -46 -746 0
-175 46 0
-175 746 0
176 -175 -38 0
-176 175 0
-176 38 0
177 -778 -174 0
-177 778 0
-177 174 0
178 -31 -6 0
-178 31 0
-178 6 0
179 -178 -702 0
-179 178 0
-179 702 0
180 -779 -177 0
-180 779 0
-180 177 0
181 -25 -717 0
-181 25 0
-181 717 0
182 -181 -35 0
-182 181 0
-182 35 0
183 -780 -180 0
-183 780 0
-183 180 0
184 -752 -11 0
-184 752 0
-184 11 0
185 -184 -7 0
-185 184 0
-185 7 0
186 -781 -183 0
-186 781 0
-186 183 0
187 -46 -754 0
-187 46 0
-187 754 0
188 -187 -739 0
-188 187 0
-188 739 0
189 -782 -186 0
-189 782 0
-189 186 0
190 -29 -727 0
-190 29 0
-190 727 0
191 -190 -41 0
-191 190 0
-191 41 0
192 -783 -189 0
-192 783 0
-192 189 0
193 -784 -717 0
-193 784 0
-193 717 0
194 -193 -785 0
-194 193 0
-194 785 0
195 -786 -192 0
-195 786 0
-195 192 0
196 -35 -776 0
-196 35 0
-196 776 0
197 -196 -12 0
-197 196 0
-197 12 0
198 -787 -195 0
-198 787 0
-198 195 0
199 -16 -3 0
-199 16 0
-199 3 0
200 -199 -13 0
-200 199 0
-200 13 0
201 -788 -198 0
-201 788 0
-201 198 0
202 -789 -5 0
-202 789 0
-202 5 0
203 -202 -717 0
-203 202 0
-203 717 0
204 -790 -201 0
-204 790 0
-204 201 0
205 -714 -698 0
-205 714 0
-205 698 0
206 -205 -704 0
-206 205 0
-206 704 0
207 -791 -204 0
-207 791 0
-207 204 0
208 -792 -759 0
-208 792 0
-208 759 0
209 -208 -709 0
-209 208 0
-209 709 0
210 -793 -207 0
-210 793 0
-210 207 0
211 -754 -32 0
-211 754 0
-211 32 0
212 -211 -739 0
-212 211 0
-212 739 0
213 -794 -210 0
-213 794 0
-213 210 0
214 -732 -4 0
-214 732 0
-214 4 0
215 -214 -40 0
-215 214 0
-215 40 0
216 -795 -213 0
-216 795 0
-216 213 0
217 -175 -739 0
-217 175 0
-217 739 0
218 -796 -216 0
-218 796 0
-218 216 0
219 -39 -2 0
-219 39 0
-219 2 0
220 -219 -20 0
-220 219 0
-220 20 0
221 -797 -218 0
-221 797 0
-221 218 0
222 -46 -698 0
-222 46 0
-222 698 0
223 -222 -798 0
-223 222 0
-223 798 0
224 -799 -221 0
-224 799 0
-224 221 0
225 -732 -704 0
-225 732 0
-225 704 0
226 -225 -45 0
-226 225 0
-226 45 0
227 -800 -224 0
-227 800 0
-227 224 0
228 -756 -17 0
-228 756 0
-228 17 0
229 -228 -15 0
-229 228 0
-229 15 0
230 -801 -227 0
-230 801 0
-230 227 0
231 -49 -716 0
-231 49 0
-231 716 0
232 -231 -23 0
-232 231 0
-232 23 0
233 -802 -230 0
-233 802 0
-233 230 0
234 -29 -16 0
-234 29 0
-234 16 0
235 -234 -12 0
-235 234 0
-235 12 0
236 -803 -233 0
-236 803 0
-236 233 0
237 -47 -720 0
-237 47 0
-237 720 0
238 -237 -756 0
-238 237 0
-238 756 0
239 -804 -236 0
-239 804 0
-239 236 0
240 -18 -759 0
-240 18 0
-240 759 0
241 -240 -702 0
-241 240 0
-241 702 0
242 -805 -239 0
-242 805 0
-242 239 0
243 -31 -762 0
-243 31 0
-243 762 0
244 -243 -15 0
-244 243 0
-244 15 0
245 -806 -242 0
-245 806 0
-245 242 0
246 -49 -761 0
-246 49 0
-246 761 0
247 -246 -776 0
-247 246 0
-247 776 0
248 -807 -245 0
-248 807 0
-248 245 0
249 -755 -23 0
-249 755 0
-249 23 0
250 -249 -737 0
-250 249 0
-250 737 0
251 -808 -248 0
-251 808 0
-251 248 0
252 -41 -704 0
-252 41 0
-252 704 0
253 -252 -38 0
-253 252 0
-253 38 0
254 -809 -251 0
-254 809 0
-254 251 0
255 -14 -707 0
-255 14 0
-255 707 0
256 -255 -23 0
-256 255 0
-256 23 0
257 -810 -254 0
-257 810 0
-257 254 0
258 -754 -14 0
-258 754 0
-258 14 0
259 -258 -48 0
-259 258 0
-259 48 0
260 -811 -257 0
-260 811 0
-260 257 0
261 -28 -698 0
-261 28 0
-261 698 0
262 -261 -18 0
-262 261 0
-262 18 0
263 -812 -260 0
-263 812 0
-263 260 0
264 -50 -792 0
-264 50 0
-264 792 0
265 -264 -29 0
-265 264 0
-265 29 0
266 -813 -263 0
-266 813 0
-266 263 0
267 -14 -1 0
-267 14 0
-267 1 0
268 -267 -785 0
-268 267 0
-268 785 0
269 -814 -266 0
-269 814 0
-269 266 0
270 -752 -12 0
-270 752 0
-270 12 0
271 -270 -26 0
-271 270 0
-271 26 0
272 -815 -269 0
-272 815 0
-272 269 0
273 -47 -789 0
-273 47 0
-273 789 0
274 -273 -719 0
-274 273 0
-274 719 0
275 -816 -272 0
-275 816 0
-275 272 0
276 -25 -719 0
-276 25 0
-276 719 0
277 -276 -44 0
-277 276 0
-277 44 0
278 -817 -275 0
-278 817 0
-278 275 0
279 -20 -16 0
-279 20 0
-279 16 0
280 -279 -776 0
-280 279 0
-280 776 0
281 -818 -278 0
-281 818 0
-281 278 0
282 -754 -23 0
-282 754 0
-282 23 0
283 -282 -35 0
-283 282 0
-283 35 0
284 -819 -281 0
-284 819 0
-284 281 0
285 -820 -37 0
-285 820 0
-285 37 0
286 -285 -13 0
-286 285 0
-286 13 0
287 -821 -284 0
-287 821 0
-287 284 0
288 -21 -20 0
-288 21 0
-288 20 0
289 -288 -702 0
-289 288 0
-289 702 0
290 -822 -287 0
-290 822 0
-290 287 0
291 -789 -21 0
-291 789 0
-291 21 0
292 -291 -26 0
-292 291 0
-292 26 0
293 -823 -290 0
-293 823 0
-293 290 0
294 -41 -29 0
-294 41 0
-294 29 0
295 -294 -772 0
-295 294 0
-295 772 0
296 -824 -293 0
-296 824 0
-296 293 0
297 -761 -825 0
-297 761 0
-297 825 0
298 -297 -38 0
-298 297 0
-298 38 0
299 -826 -296 0
-299 826 0
-299 296 0
300 -31 -29 0
-300 31 0
-300 29 0
301 -300 -702 0
-301 300 0
-301 702 0
302 -827 -299 0
-302 827 0
-302 299 0
303 -16 -7 0
-303 16 0
-303 7 0
304 -303 -13 0
-304 303 0
-304 13 0
305 -828 -302 0
-305 828 0
-305 302 0
306 -724 -16 0
-306 724 0
-306 16 0
307 -306 -730 0
-307 306 0
-307 730 0
308 -829 -305 0
-308 829 0
-308 305 0
309 -43 -1 0
-309 43 0
-309 1 0
310 -309 -13 0
-310 309 0
-310 13 0
311 -830 -308 0
-311 830 0
-311 308 0
312 -41 -767 0
-312 41 0
-312 767 0
313 -312 -752 0
-313 312 0
-313 752 0
314 -831 -311 0
-314 831 0
-314 311 0
315 -767 -717 0
-315 767 0
-315 717 0
316 -315 -769 0
-316 315 0
-316 769 0
317 -832 -314 0
-317 832 0
-317 314 0
318 -30 -4 0
-318 30 0
-318 4 0
319 -318 -784 0
-319 318 0
-319 784 0
320 -833 -317 0
-320 833 0
-320 317 0
321 -3 -697 0
-321 3 0
-321 697 0
322 -321 -730 0
-322 321 0
-322 730 0
323 -834 -320 0
-323 834 0
-323 320 0
324 -17 -707 0
-324 17 0
-324 707 0
325 -324 -714 0
-325 324 0
-325 714 0
326 -835 -323 0
-326 835 0
-326 323 0
327 -23 -6 0
-327 23 0
-327 6 0
328 -327 -10 0
-328 327 0
-328 10 0
329 -836 -326 0
-329 836 0
-329 326 0
330 -43 -34 0
-330 43 0
-330 34 0
331 -330 -798 0
-331 330 0
-331 798 0
332 -837 -329 0
-332 837 0
-332 329 0
333 -707 -6 0
-333 707 0
-333 6 0
334 -333 -730 0
-334 333 0
-334 730 0
335 -838 -332 0
-335 838 0
-335 332 0
336 -792 -697 0
-336 792 0
-336 697 0
337 -336 -839 0
-337 336 0
-337 839 0
338 -840 -335 0
-338 840 0
-338 335 0
339 -839 -726 0
-339 839 0
-339 726 0
340 -339 -746 0
-340 339 0
-340 746 0
341 -841 -338 0
-341 841 0
-341 338 0
342 -39 -32 0
-342 39 0
-342 32 0
343 -342 -38 0
-343 342 0
-343 38 0
344 -842 -341 0
-344 842 0
-344 341 0
345 -5 -4 0
-345 5 0
-345 4 0
346 -345 -732 0
-346 345 0
-346 732 0
347 -843 -344 0
-347 843 0
-347 344 0
348 -21 -698 0
-348 21 0
-348 698 0
349 -348 -42 0
-349 348 0
-349 42 0
350 -844 -347 0
-350 844 0
-350 347 0
351 -820 -707 0
-351 820 0
-351 707 0
352 -351 -776 0
-352 351 0
-352 776 0
353 -845 -350 0
-353 845 0
-353 350 0
354 -784 -756 0
-354 784 0
-354 756 0
355 -354 -717 0
-355 354 0
-355 717 0
356 -846 -353 0
-356 846 0
-356 353 0
357 -839 -701 0
-357 839 0
-357 701 0
358 -357 -752 0
-358 357 0
-358 752 0
359 -847 -356 0
-359 847 0
-359 356 0
360 -45 -716 0
-360 45 0
-360 716 0
361 -360 -730 0
-361 360 0
-361 730 0
362 -848 -359 0
-362 848 0
-362 359 0
363 -820 -14 0
-363 820 0
-363 14 0
364 -363 -48 0
-364 363 0
-364 48 0
365 -849 -362 0
-365 849 0
-365 362 0
366 -39 -698 0
-366 39 0
-366 698 0
367 -366 -737 0
-367 366 0
-367 737 0
368 -850 -365 0
-368 850 0
-368 365 0
369 -820 -752 0
-369 820 0
-369 752 0
370 -369 -739 0
-370 369 0
-370 739 0
371 -851 -368 0
-371 851 0
-371 368 0
372 -21 -704 0
-372 21 0
-372 704 0
373 -372 -739 0
-373 372 0
-373 739 0
374 -852 -371 0
-374 852 0
-374 371 0
375 -33 -30 0
-375 33 0
-375 30 0
376 -375 -42 0
-376 375 0
-376 42 0
377 -853 -374 0
-377 853 0
-377 374 0
378 -732 -7 0
-378 732 0
-378 7 0
379 -378 -722 0
-379 378 0
-379 722 0
380 -854 -377 0
-380 854 0
-380 377 0
381 -734 -17 0
-381 734 0
-381 17 0
382 -381 -739 0
-382 381 0
-382 739 0
383 -855 -380 0
-383 855 0
-383 380 0
384 -33 -716 0
-384 33 0
-384 716 0
385 -384 -15 0
-385 384 0
-385 15 0
386 -856 -383 0
-386 856 0
-386 383 0
387 -754 -727 0
-387 754 0
-387 727 0
388 -387 -776 0
-388 387 0
-388 776 0
389 -857 -386 0
-389 857 0
-389 386 0
390 -858 -17 0
-390 858 0
-390 17 0
391 -390 -767 0
-391 390 0
-391 767 0
392 -859 -389 0
-392 859 0
-392 389 0
393 -50 -32 0
-393 50 0
-393 32 0
394 -393 -34 0
-394 393 0
-394 34 0
395 -860 -392 0
-395 860 0
-395 392 0
396 -24 -4 0
-396 24 0
-396 4 0
397 -396 -35 0
-397 396 0
-397 35 0
398 -861 -395 0
-398 861 0
-398 395 0
399 -839 -30 0
-399 839 0
-399 30 0
400 -399 -751 0
-400 399 0
-400 751 0
401 -862 -398 0
-401 862 0
-401 398 0
402 -39 -29 0
-402 39 0
-402 29 0
403 -402 -43 0
-403 402 0
-403 43 0
404 -863 -401 0
-404 863 0
-404 401 0
405 -4 -697 0
-405 4 0
-405 697 0
406 -405 -722 0
-406 405 0
-406 722 0
407 -864 -404 0
-407 864 0
-407 404 0
408 -784 -5 0
-408 784 0
-408 5 0
409 -408 -732 0
-409 408 0
-409 732 0
410 -865 -407 0
-410 865 0
-410 407 0
411 -35 -714 0
-411 35 0
-411 714 0
412 -411 -769 0
-412 411 0
-412 769 0
413 -866 -410 0
-413 866 0
-413 410 0
414 -30 -12 0
-414 30 0
-414 12 0
415 -414 -730 0
-415 414 0
-415 730 0
416 -867 -413 0
-416 867 0
-416 413 0
417 -785 -769 0
-417 785 0
-417 769 0
418 -417 -12 0
-418 417 0
-418 12 0
419 -868 -416 0
-419 868 0
-419 416 0
420 -732 -748 0
-420 732 0
-420 748 0
421 -420 -769 0
-421 420 0
-421 769 0
422 -869 -419 0
-422 869 0
-422 419 0
423 -767 -6 0
-423 767 0
-423 6 0
424 -423 -737 0
-424 423 0
-424 737 0
425 -870 -422 0
-425 870 0
-425 422 0
426 -32 -22 0
-426 32 0
-426 22 0
427 -426 -767 0
-427 426 0
-427 767 0
428 -871 -425 0
-428 871 0
-428 425 0
429 -732 -726 0
-429 732 0
-429 726 0
430 -429 -752 0
-430 429 0
-430 752 0
431 -872 -428 0
-431 872 0
-431 428 0
432 -761 -16 0
-432 761 0
-432 16 0
433 -432 -40 0
-433 432 0
-433 40 0
434 -873 -431 0
-434 873 0
-434 431 0
435 -734 -11 0
-435 734 0
-435 11 0
436 -435 -38 0
-436 435 0
-436 38 0
437 -874 -434 0
-437 874 0
-437 434 0
438 -33 -698 0
-438 33 0
-438 698 0
439 -438 -785 0
-439 438 0
-439 785 0
440 -875 -437 0
-440 875 0
-440 437 0
441 -792 -18 0
-441 792 0
-441 18 0
442 -441 -772 0
-442 441 0
-442 772 0
443 -876 -440 0
-443 876 0
-443 440 0
444 -719 -6 0
-444 719 0
-444 6 0
445 -444 -12 0
-445 444 0
-445 12 0
446 -877 -443 0
-446 877 0
-446 443 0
447 -50 -18 0
-447 50 0
-447 18 0
448 -447 -24 0
-448 447 0
-448 24 0
449 -878 -446 0
-449 878 0
-449 446 0
450 -767 -14 0
-450 767 0
-450 14 0
451 -450 -23 0
-451 450 0
-451 23 0
452 -879 -449 0
-452 879 0
-452 449 0
453 -18 -9 0
-453 18 0
-453 9 0
454 -453 -772 0
-454 453 0
-454 772 0
455 -880 -452 0
-455 880 0
-455 452 0
456 -798 -761 0
-456 798 0
-456 761 0
457 -456 -702 0
-457 456 0
-457 702 0
458 -881 -455 0
-458 881 0
-458 455 0
459 -33 -24 0
-459 33 0
-459 24 0
460 -459 -48 0
-460 459 0
-460 48 0
461 -882 -458 0
-461 882 0
-461 458 0
462 -732 -1 0
-462 732 0
-462 1 0
463 -462 -40 0
-463 462 0
-463 40 0
464 -883 -461 0
-464 883 0
-464 461 0
465 -40 -28 0
-465 40 0
-465 28 0
466 -465 -15 0
-466 465 0
-466 15 0
467 -884 -464 0
-467 884 0
-467 464 0
468 -31 -707 0
-468 31 0
-468 707 0
469 -468 -724 0
-469 468 0
-469 724 0
470 -885 -467 0
-470 885 0
-470 467 0
471 -772 -23 0
-471 772 0
-471 23 0
472 -471 -730 0
-472 471 0
-472 730 0
473 -886 -470 0
-473 886 0
-473 470 0
474 -43 -720 0
-474 43 0
-474 720 0
475 -474 -38 0
-475 474 0
-475 38 0
476 -887 -473 0
-476 887 0
-476 473 0
477 -761 -29 0
-477 761 0
-477 29 0
478 -477 -42 0
-478 477 0
-478 42 0
479 -888 -476 0
-479 888 0
-479 476 0
480 -33 -704 0
-480 33 0
-480 704 0
481 -480 -756 0
-481 480 0
-481 756 0
482 -889 -479 0
-482 889 0
-482 479 0
483 -43 -4 0
-483 43 0
-483 4 0
484 -483 -737 0
-484 483 0
-484 737 0
485 -890 -482 0
-485 890 0
-485 482 0
486 -891 -14 0
-486 891 0
-486 14 0
487 -486 -5 0
-487 486 0
-487 5 0
488 -892 -485 0
-488 892 0
-488 485 0
489 -839 -724 0
-489 839 0
-489 724 0
490 -489 -717 0
-490 489 0
-490 717 0
491 -893 -488 0
-491 893 0
-491 488 0
492 -727 -6 0
-492 727 0
-492 6 0
493 -492 -737 0
-493 492 0
-493 737 0
494 -894 -491 0
-494 894 0
-494 491 0
495 -8 -4 0
-495 8 0
-495 4 0
496 -495 -737 0
-496 495 0
-496 737 0
497 -895 -494 0
-497 895 0
-497 494 0
498 -447 -714 0
-498 447 0
-498 714 0
499 -896 -497 0
-499 896 0
-499 497 0
500 -47 -897 0
-500 47 0
-500 897 0
501 -500 -7 0
-501 500 0
-501 7 0
502 -898 -499 0
-502 898 0
-502 499 0
503 -33 -702 0
-503 33 0
-503 702 0
504 -503 -13 0
-504 503 0
-504 13 0
505 -899 -502 0
-505 899 0
-505 502 0
506 -798 -734 0
-506 798 0
-506 734 0
507 -506 -26 0
-507 506 0
-507 26 0
508 -900 -505 0
-508 900 0
-508 505 0
509 -33 -711 0
-509 33 0
-509 711 0
510 -509 -785 0
-510 509 0
-510 785 0
511 -901 -508 0
-511 901 0
-511 508 0
512 -18 -6 0
-512 18 0
-512 6 0
513 -512 -40 0
-513 512 0
-513 40 0
514 -902 -511 0
-514 902 0
-514 511 0
515 -47 -748 0
-515 47 0
-515 748 0
516 -515 -726 0
-516 515 0
-516 726 0
517 -903 -514 0
-517 903 0
-517 514 0
518 -33 -762 0
-518 33 0
-518 762 0
519 -518 -38 0
-519 518 0
-519 38 0
520 -904 -517 0
-520 904 0
-520 517 0
521 -34 -33 0
-521 34 0
-521 33 0
522 -521 -26 0
-522 521 0
-522 26 0
523 -905 -520 0
-523 905 0
-523 520 0
524 -785 -772 0
-524 785 0
-524 772 0
525 -524 -13 0
-525 524 0
-525 13 0
526 -906 -523 0
-526 906 0
-526 523 0
527 -751 -6 0
-527 751 0
-527 6 0
528 -527 -739 0
-528 527 0
-528 739 0
529 -907 -526 0
-529 907 0
-529 526 0
530 -50 -30 0
-530 50 0
-530 30 0
531 -530 -48 0
-531 530 0
-531 48 0
532 -908 -529 0
-532 908 0
-532 529 0
533 -839 -737 0
-533 839 0
-533 737 0
534 -533 -764 0
-534 533 0
-534 764 0
535 -909 -532 0
-535 909 0
-535 532 0
536 -35 -759 0
-536 35 0
-536 759 0
537 -536 -26 0
-537 536 0
-537 26 0
538 -910 -535 0
-538 910 0
-538 535 0
539 -32 -5 0
-539 32 0
-539 5 0
540 -539 -7 0
-540 539 0
-540 7 0
541 -911 -538 0
-541 911 0
-541 538 0
542 -792 -43 0
-542 792 0
-542 43 0
543 -542 -22 0
-543 542 0
-543 22 0
544 -912 -541 0
-544 912 0
-544 541 0
545 -9 -7 0
-545 9 0
-545 7 0
546 -545 -12 0
-546 545 0
-546 12 0
547 -913 -544 0
-547 913 0
-547 544 0
548 -46 -22 0
-548 46 0
-548 22 0
549 -548 -720 0
-549 548 0
-549 720 0
550 -914 -547 0
-550 914 0
-550 547 0
551 -48 -789 0
-551 48 0
-551 789 0
552 -551 -40 0
-552 551 0
-552 40 0
553 -915 -550 0
-553 915 0
-553 550 0
554 -752 -714 0
-554 752 0
-554 714 0
555 -554 -44 0
-555 554 0
-555 44 0
556 -916 -553 0
-556 916 0
-556 553 0
557 -769 -24 0
-557 769 0
-557 24 0
558 -557 -730 0
-558 557 0
-558 730 0
559 -917 -556 0
-559 917 0
-559 556 0
560 -19 -8 0
-560 19 0
-560 8 0
561 -560 -42 0
-561 560 0
-561 42 0
562 -918 -559 0
-562 918 0
-562 559 0
563 -716 -825 0
-563 716 0
-563 825 0
564 -563 -5 0
-564 563 0
-564 5 0
565 -919 -562 0
-565 919 0
-565 562 0
566 -771 -27 0
-566 771 0
-566 27 0
567 -566 -41 0
-567 566 0
-567 41 0
568 -920 -565 0
-568 920 0
-568 565 0
569 -43 -16 0
-569 43 0
-569 16 0
570 -569 -704 0
-570 569 0
-570 704 0
571 -921 -568 0
-571 921 0
-571 568 0
572 -798 -7 0
-572 798 0
-572 7 0
573 -572 -10 0
-573 572 0
-573 10 0
574 -922 -571 0
-574 922 0
-574 571 0
575 -19 -748 0
-575 19 0
-575 748 0
576 -575 -732 0
-576 575 0
-576 732 0
577 -923 -574 0
-577 923 0
-577 574 0
578 -748 -8 0
-578 748 0
-578 8 0
579 -578 -13 0
-579 578 0
-579 13 0
580 -924 -577 0
-580 924 0
-580 577 0
581 -35 -6 0
-581 35 0
-581 6 0
582 -581 -26 0
-582 581 0
-582 26 0
583 -925 -580 0
-583 925 0
-583 580 0
584 -30 -17 0
-584 30 0
-584 17 0
585 -584 -26 0
-585 584 0
-585 26 0
586 -926 -583 0
-586 926 0
-586 583 0
587 -50 -726 0
-587 50 0
-587 726 0
588 -587 -42 0
-588 587 0
-588 42 0
589 -927 -586 0
-589 927 0
-589 586 0
590 -49 -18 0
-590 49 0
-590 18 0
591 -590 -31 0
-591 590 0
-591 31 0
592 -928 -589 0
-592 928 0
-592 589 0
593 -110 -12 0
-593 110 0
-593 12 0
594 -929 -592 0
-594 929 0
-594 592 0
595 -762 -825 0
-595 762 0
-595 825 0
596 -595 -754 0
-596 595 0
-596 754 0
597 -930 -594 0
-597 930 0
-597 594 0
598 -39 -719 0
-598 39 0
-598 719 0
599 -598 -7 0
-599 598 0
-599 7 0
600 -931 -597 0
-600 931 0
-600 597 0
601 -734 -825 0
-601 734 0
-601 825 0
602 -601 -769 0
-602 601 0
-602 769 0
603 -932 -600 0
-603 932 0
-603 600 0
604 -25 -20 0
-604 25 0
-604 20 0
605 -604 -767 0
-605 604 0
-605 767 0
606 -933 -603 0
-606 933 0
-606 603 0
607 -767 -2 0
-607 767 0
-607 2 0
608 -607 -717 0
-608 607 0
-608 717 0
609 -934 -606 0
-609 934 0
-609 606 0
610 -761 -697 0
-610 761 0
-610 697 0
611 -610 -38 0
-611 610 0
-611 38 0
612 -935 -609 0
-612 935 0
-612 609 0
613 -761 -789 0
-613 761 0
-613 789 0
614 -613 -34 0
-614 613 0
-614 34 0
615 -936 -612 0
-615 936 0
-615 612 0
616 -5 -698 0
-616 5 0
-616 698 0
617 -616 -34 0
-617 616 0
-617 34 0
618 -937 -615 0
-618 937 0
-618 615 0
619 -24 -20 0
-619 24 0
-619 20 0
620 -619 -7 0
-620 619 0
-620 7 0
621 -938 -618 0
-621 938 0
-621 618 0
622 -785 -3 0
-622 785 0
-622 3 0
623 -622 -13 0
-623 622 0
-623 13 0
624 -939 -621 0
-624 939 0
-624 621 0
625 -37 -1 0
-625 37 0
-625 1 0
626 -625 -739 0
-626 625 0
-626 739 0
627 -940 -624 0
-627 940 0
-627 624 0
628 -798 -752 0
-628 798 0
-628 752 0
629 -628 -44 0
-629 628 0
-629 44 0
630 -941 -627 0
-630 941 0
-630 627 0
631 -530 -35 0
-631 530 0
-631 35 0
632 -942 -630 0
-632 942 0
-632 630 0
633 -732 -28 0
-633 732 0
-633 28 0
634 -633 -10 0
-634 633 0
-634 10 0
635 -943 -632 0
-635 943 0
-635 632 0
636 -11 -3 0
-636 11 0
-636 3 0
637 -636 -34 0
-637 636 0
-637 34 0
638 -944 -635 0
-638 944 0
-638 635 0
639 -756 -724 0
-639 756 0
-639 724 0
640 -639 -798 0
-640 639 0
-640 798 0
641 -945 -638 0
-641 945 0
-641 638 0
642 -891 -7 0
-642 891 0
-642 7 0
643 -642 -26 0
-643 642 0
-643 26 0
644 -946 -641 0
-644 946 0
-644 641 0
645 -4 -1 0
-645 4 0
-645 1 0
646 -645 -35 0
-646 645 0
-646 35 0
647 -947 -644 0
-647 947 0
-647 644 0
648 -820 -17 0
-648 820 0
-648 17 0
649 -648 -28 0
-649 648 0
-649 28 0
650 -948 -647 0
-650 948 0
-650 647 0
651 -762 -4 0
-651 762 0
-651 4 0
652 -651 -704 0
-652 651 0
-652 704 0
653 -949 -650 0
-653 949 0
-653 650 0
654 -38 -30 0
-654 38 0
-654 30 0
655 -654 -764 0
-655 654 0
-655 764 0
656 -950 -653 0
-656 950 0
-656 653 0
657 -839 -4 0
-657 839 0
-657 4 0
658 -657 -35 0
-658 657 0
-658 35 0
659 -951 -656 0
-659 951 0
-659 656 0
660 -48 -769 0
-660 48 0
-660 769 0
661 -660 -730 0
-661 660 0
-661 730 0
662 -952 -659 0
-662 952 0
-662 659 0
663 -48 -714 0
-663 48 0
-663 714 0
664 -663 -13 0
-664 663 0
-664 13 0
665 -953 -662 0
-665 953 0
-665 662 0
666 -734 -16 0
-666 734 0
-666 16 0
667 -666 -769 0
-667 666 0
-667 769 0
668 -954 -665 0
-668 954 0
-668 665 0
669 -792 -14 0
-669 792 0
-669 14 0
670 -669 -737 0
-670 669 0
-670 737 0
671 -955 -668 0
-671 955 0
-671 668 0
672 -755 -2 0
-672 755 0
-672 2 0
673 -672 -23 0
-673 672 0
-673 23 0
674 -956 -671 0
-674 956 0
-674 671 0
675 -784 -6 0
-675 784 0
-675 6 0
676 -675 -746 0
-676 675 0
-676 746 0
677 -957 -674 0
-677 957 0
-677 674 0
678 -49 -825 0
-678 49 0
-678 825 0
679 -678 -46 0
-679 678 0
-679 46 0
680 -958 -677 0
-680 958 0
-680 677 0
681 -660 -739 0
-681 660 0
-681 739 0
682 -959 -680 0
-682 959 0
-682 680 0
683 -820 -748 0
-683 820 0
-683 748 0
684 -683 -47 0
-684 683 0
-684 47 0
685 -960 -682 0
-685 960 0
-685 682 0
686 -20 -2 0
-686 20 0
-686 2 0
687 -686 -28 0
-687 686 0
-687 28 0
688 -961 -685 0
-688 961 0
-688 685 0
689 -140 -772 0
-689 140 0
-689 772 0
690 -962 -688 0
-690 962 0
-690 688 0
691 -776 -20 0
-691 776 0
-691 20 0
692 -691 -40 0
-692 691 0
-692 40 0
693 -963 -690 0
-693 963 0
-693 690 0
694 -21 -2 0
-694 21 0
-694 2 0
695 -694 -751 0
-695 694 0
-695 751 0
696 -964 -693 0
-696 964 0
-696 693 0
-697 -2 0
697 2 0
-698 -4 0
698 4 0
-699 -54 0
699 54 0
-700 -52 0
700 52 0
-701 -6 0
701 6 0
-702 -7 0
702 7 0
-703 -57 0
703 57 0
-704 -9 0
704 9 0
-705 -60 0
705 60 0
-706 -12 0
706 12 0
-707 -11 0
707 11 0
-708 -63 0
708 63 0
-709 -15 0
709 15 0
-710 -66 0
710 66 0
-711 -16 0
711 16 0
-712 -69 0
712 69 0
-713 -72 0
713 72 0
-714 -21 0
714 21 0
-715 -75 0
715 75 0
-716 -18 0
716 18 0
-717 -23 0
717 23 0
-718 -78 0
718 78 0
-719 -19 0
719 19 0
-720 -24 0
720 24 0
-721 -81 0
721 81 0
-722 -26 0
722 26 0
-723 -84 0
723 84 0
-724 -27 0
724 27 0
-725 -87 0
725 87 0
-726 -28 0
726 28 0
-727 -8 0
727 8 0
-728 -90 0
728 90 0
-729 -93 0
729 93 0
-730 -13 0
730 13 0
-731 -96 0
731 96 0
-732 -31 0
732 31 0
-733 -99 0
733 99 0
-734 -32 0
734 32 0
-735 -102 0
735 102 0
-736 -105 0
736 105 0
-737 -35 0
737 35 0
-738 -108 0
738 108 0
-739 -10 0
739 10 0
-740 -111 0
740 111 0
-741 -114 0
741 114 0
-742 -117 0
742 117 0
-743 -120 0
743 120 0
-744 -123 0
744 123 0
-745 -126 0
745 126 0
-746 -42 0
746 42 0
-747 -129 0
747 129 0
-748 -14 0
748 14 0
-749 -132 0
749 132 0
-750 -135 0
750 135 0
-751 -33 0
751 33 0
-752 -38 0
752 38 0
-753 -138 0
753 138 0
-754 -43 0
754 43 0
-755 -29 0
755 29 0
-756 -37 0
756 37 0
-757 -141 0
757 141 0
-758 -144 0
758 144 0
-759 -1 0
759 1 0
-760 -147 0
760 147 0
-761 -39 0
761 39 0
-762 -25 0
762 25 0
-763 -150 0
763 150 0
-764 -44 0
764 44 0
-765 -153 0
765 153 0
-766 -156 0
766 156 0
-767 -34 0
767 34 0
-768 -159 0
768 159 0
-769 -41 0
769 41 0
-770 -162 0
770 162 0
-771 -45 0
771 45 0
-772 -36 0
772 36 0
-773 -165 0
773 165 0
-774 -167 0
774 167 0
-775 -170 0
775 170 0
-776 -22 0
776 22 0
-777 -173 0
777 173 0
-778 -176 0
778 176 0
-779 -179 0
779 179 0
-780 -182 0
780 182 0
-781 -185 0
781 185 0
-782 -188 0
782 188 0
-783 -191 0
783 191 0
-784 -47 0
784 47 0
-785 -48 0
785 48 0
-786 -194 0
786 194 0
-787 -197 0
787 197 0
-788 -200 0
788 200 0
-789 -30 0
789 30 0
-790 -203 0
790 203 0
-791 -206 0
791 206 0
-792 -49 0
792 49 0
-793 -209 0
793 209 0
-794 -212 0
794 212 0
-795 -215 0
795 215 0
-796 -217 0
796 217 0
-797 -220 0
797 220 0
-798 -40 0
798 40 0
-799 -223 0
799 223 0
-800 -226 0
800 226 0
-801 -229 0
801 229 0
-802 -232 0
802 232 0
-803 -235 0
803 235 0
-804 -238 0
804 238 0
-805 -241 0
805 241 0
-806 -244 0
806 244 0
-807 -247 0
807 247 0
-808 -250 0
808 250 0
-809 -253 0
809 253 0
-810 -256 0
810 256 0
-811 -259 0
811 259 0
-812 -262 0
812 262 0
-813 -265 0
813 265 0
-814 -268 0
814 268 0
-815 -271 0
815 271 0
-816 -274 0
816 274 0
-817 -277 0
817 277 0
-818 -280 0
818 280 0
-819 -283 0
819 283 0
-820 -50 0
820 50 0
-821 -286 0
821 286 0
-822 -289 0
822 289 0
-823 -292 0
823 292 0
-824 -295 0
824 295 0
-825 -3 0
825 3 0
-826 -298 0
826 298 0
-827 -301 0
827 301 0
-828 -304 0
828 304 0
-829 -307 0
829 307 0
-830 -310 0
830 310 0
-831 -313 0
831 313 0
-832 -316 0
832 316 0
-833 -319 0
833 319 0
-834 -322 0
834 322 0
-835 -325 0
835 325 0
-836 -328 0
836 328 0
-837 -331 0
837 331 0
-838 -334 0
838 334 0
-839 -46 0
839 46 0
-840 -337 0
840 337 0
-841 -340 0
841 340 0
-842 -343 0
842 343 0
-843 -346 0
843 346 0
-844 -349 0
844 349 0
-845 -352 0
845 352 0
-846 -355 0
846 355 0
-847 -358 0
847 358 0
-848 -361 0
848 361 0
-849 -364 0
849 364 0
-850 -367 0
850 367 0
-851 -370 0
851 370 0
-852 -373 0
852 373 0
-853 -376 0
853 376 0
-854 -379 0
854 379 0
-855 -382 0
855 382 0
-856 -385 0
856 385 0
-857 -388 0
857 388 0
-858 -20 0
858 20 0
-859 -391 0
859 391 0
-860 -394 0
860 394 0
-861 -397 0
861 397 0
-862 -400 0
862 400 0
-863 -403 0
863 403 0
-864 -406 0
864 406 0
-865 -409 0
865 409 0
-866 -412 0
866 412 0
-867 -415 0
867 415 0
-868 -418 0
868 418 0
-869 -421 0
869 421 0
-870 -424 0
870 424 0
-871 -427 0
871 427 0
-872 -430 0
872 430 0
-873 -433 0
873 433 0
-874 -436 0
874 436 0
-875 -439 0
875 439 0
-876 -442 0
876 442 0
-877 -445 0
877 445 0
-878 -448 0
878 448 0
-879 -451 0
879 451 0
-880 -454 0
880 454 0
-881 -457 0
881 457 0
-882 -460 0
882 460 0
-883 -463 0
883 463 0
-884 -466 0
884 466 0
-885 -469 0
885 469 0
-886 -472 0
886 472 0
-887 -475 0
887 475 0
-888 -478 0
888 478 0
-889 -481 0
889 481 0
-890 -484 0
890 484 0
-891 -17 0
891 17 0
-892 -487 0
892 487 0
-893 -490 0
893 490 0
-894 -493 0
894 493 0
-895 -496 0
895 496 0
-896 -498 0
896 498 0
-897 -5 0
897 5 0
-898 -501 0
898 501 0
-899 -504 0
899 504 0
-900 -507 0
900 507 0
-901 -510 0
901 510 0
-902 -513 0
902 513 0
-903 -516 0
903 516 0
-904 -519 0
904 519 0
-905 -522 0
905 522 0
-906 -525 0
906 525 0
-907 -528 0
907 528 0
-908 -531 0
908 531 0
-909 -534 0
909 534 0
-910 -537 0
910 537 0
-911 -540 0
911 540 0
-912 -543 0
912 543 0
-913 -546 0
913 546 0
-914 -549 0
914 549 0
-915 -552 0
915 552 0
-916 -555 0
916 555 0
-917 -558 0
917 558 0
-918 -561 0
918 561 0
-919 -564 0
919 564 0
-920 -567 0
920 567 0
-921 -570 0
921 570 0
-922 -573 0
922 573 0
-923 -576 0
923 576 0
-924 -579 0
924 579 0
-925 -582 0
925 582 0
-926 -585 0
926 585 0
-927 -588 0
927 588 0
-928 -591 0
928 591 0
-929 -593 0
929 593 0
-930 -596 0
930 596 0
-931 -599 0
931 599 0
-932 -602 0
932 602 0
-933 -605 0
933 605 0
-934 -608 0
934 608 0
-935 -611 0
935 611 0
-936 -614 0
936 614 0
-937 -617 0
937 617 0
-938 -620 0
938 620 0
-939 -623 0
939 623 0
-940 -626 0
940 626 0
-941 -629 0
941 629 0
-942 -631 0
942 631 0
-943 -634 0
943 634 0
-944 -637 0
944 637 0
-945 -640 0
945 640 0
-946 -643 0
946 643 0
-947 -646 0
947 646 0
-948 -649 0
948 649 0
-949 -652 0
949 652 0
-950 -655 0
950 655 0
-951 -658 0
951 658 0
-952 -661 0
952 661 0
-953 -664 0
953 664 0
-954 -667 0
954 667 0
-955 -670 0
955 670 0
-956 -673 0
956 673 0
-957 -676 0
957 676 0
-958 -679 0
958 679 0
-959 -681 0
959 681 0
-960 -684 0
960 684 0
-961 -687 0
961 687 0
-962 -689 0
962 689 0
-963 -692 0
963 692 0
-964 -695 0
964 695 0
696 0
